NAME : data_13_5_tsptw.tsptw.10346.tour
COMMENT : Length = 10346
COMMENT : Found by LKH [Keld Helsgaun] Wed Feb  5 14:27:48 2020
TYPE : TOUR
DIMENSION : 14
TOUR_SECTION
1
10
6
11
5
14
13
12
4
7
2
3
9
8
-1
EOF
